NAME : tsp50_19.225.tour
COMMENT : Length = 225
COMMENT : Found by LKH [Keld Helsgaun]
TYPE : TOUR
DIMENSION : 50
TOUR_SECTION
1
25
5
27
6
16
26
19
32
22
10
35
12
38
18
37
2
3
15
13
9
43
33
7
36
17
23
41
24
4
39
30
21
42
48
50
20
40
44
31
8
34
29
28
46
47
11
49
14
45
-1
EOF
